Version identifier: 12.10.0.0 | 2019-11-26 | 843d4de
CPXPARAM_WorkMem                                 16384
CPXPARAM_MIP_Limits_TreeMemory                   24576
Tried aggregator 2 times.
MIP Presolve modified 36 coefficients.
Aggregator did 30 substitutions.
Reduced MIP has 134 rows, 160 columns, and 664 nonzeros.
Reduced MIP has 160 binaries, 0 generals, 0 SOSs, and 0 indicators.
Presolve time = 0,00 sec. (0,88 ticks)
Found incumbent of value 464,000000 after 0,00 sec. (1,32 ticks)
Probing time = 0,00 sec. (0,25 ticks)
Tried aggregator 1 time.
Detecting symmetries...
MIP Presolve eliminated 12 rows and 0 columns.
MIP Presolve added 24 rows and 0 columns.
Reduced MIP has 146 rows, 160 columns, and 676 nonzeros.
Reduced MIP has 160 binaries, 0 generals, 0 SOSs, and 0 indicators.
Presolve time = 0,00 sec. (0,83 ticks)
Probing time = 0,00 sec. (0,25 ticks)
Clique table members: 474.
MIP emphasis: balance optimality and feasibility.
MIP search method: dynamic search.
Parallel mode: deterministic, using up to 16 threads.
Root relaxation solution time = 0,00 sec. (0,40 ticks)

        Nodes                                         Cuts/
   Node  Left     Objective  IInf  Best Integer    Best Bound    ItCnt     Gap

*     0+    0                          464,0000        0,0000           100,00%
*     0+    0                          278,0000        0,0000           100,00%
*     0+    0                          272,0000        0,0000           100,00%
      0     0      127,2500    72      272,0000      127,2500       58   53,22%
      0     0      127,2500    72      272,0000     Cuts: 136       89   53,22%
*     0+    0                          270,0000      127,2500            52,87%
      0     0      127,2500    72      270,0000     Cuts: 115      102   52,87%
*     0+    0                          268,0000      127,2500            52,52%
      0     0      127,2500    72      268,0000     Cuts: 136      146   52,52%
*     0+    0                          254,0000      127,2500            49,90%
      0     2      151,0000    50      254,0000      127,2500      185   49,90%
Elapsed time = 0,07 sec. (18,58 ticks, tree = 0,02 MB, solutions = 6)

Clique cuts applied:  61
Cover cuts applied:  217
Mixed integer rounding cuts applied:  7
Zero-half cuts applied:  5

Root node processing (before b&c):
  Real time             =    0,07 sec. (18,49 ticks)
Parallel b&c, 16 threads:
  Real time             =    0,15 sec. (45,13 ticks)
  Sync time (average)   =    0,10 sec.
  Wait time (average)   =    0,00 sec.
                          ------------
Total (root+branch&cut) =    0,22 sec. (63,62 ticks)
